presolving:
(round 1, fast)       0 del vars, 73 del conss, 0 add conss, 15184 chg bounds, 0 chg sides, 0 chg coeffs, 0 upgd conss, 0 impls, 0 clqs
   (0.3s) running MILP presolver
   (0.4s) MILP presolver found nothing
   (1.0s) probing: 51/73 (69.9%) - 0 fixings, 0 aggregations, 0 implications, 0 bound changes
   (1.0s) probing aborted: 50/50 successive totally useless probings
   (1.0s) symmetry computation started: requiring (bin +, int -, cont +), (fixed: bin -, int +, cont -)
   (1.0s) no symmetry present
presolving (2 rounds: 2 fast, 1 medium, 1 exhaustive):
 0 deleted vars, 73 deleted constraints, 0 added constraints, 15184 tightened bounds, 0 added holes, 0 changed sides, 0 changed coefficients
 0 implications, 0 cliques
presolved problem has 15257 variables (73 bin, 0 int, 0 impl, 15184 cont) and 281 constraints
    281 constraints of type <linear>
Presolving Time: 0.96

 time | node  | left  |LP iter|LP it/n|mem/heur|mdpt |vars |cons |rows |cuts |sepa|confs|strbr|  dualbound   | primalbound  |  gap   | compl. 
p 1.2s|     1 |     0 |   210 |     - |   locks|   0 |  15k| 281 | 281 |   0 |  0 |   0 |   0 | 0.000000e+00 | 3.470400e+04 |    Inf | unknown
i 1.2s|     1 |     0 |   210 |     - |  oneopt|   0 |  15k| 281 | 281 |   0 |  0 |   0 |   0 | 0.000000e+00 | 3.403600e+04 |    Inf | unknown
  1.3s|     1 |     0 |   568 |     - |   138M |   0 |  15k| 281 | 281 |   0 |  0 |   0 |   0 | 2.860617e+04 | 3.403600e+04 |  18.98%| unknown
r 1.3s|     1 |     0 |   568 |     - |simplero|   0 |  15k| 281 | 281 |   0 |  0 |   0 |   0 | 2.860617e+04 | 3.354200e+04 |  17.25%| unknown
  1.5s|     1 |     0 |   733 |     - |   143M |   0 |  15k| 281 | 337 |  56 |  1 |   0 |   0 | 2.965536e+04 | 3.354200e+04 |  13.11%| unknown
r 1.6s|     1 |     0 |   733 |     - |shifting|   0 |  15k| 281 | 337 |  56 |  1 |   0 |   0 | 2.965536e+04 | 3.343568e+04 |  12.75%| unknown
  1.8s|     1 |     0 |   878 |     - |   144M |   0 |  15k| 281 | 373 |  92 |  2 |   0 |   0 | 2.999749e+04 | 3.343568e+04 |  11.46%| unknown
r 1.9s|     1 |     0 |   878 |     - |shifting|   0 |  15k| 281 | 373 |  92 |  2 |   0 |   0 | 2.999749e+04 | 3.340140e+04 |  11.35%| unknown
  2.2s|     1 |     0 |   956 |     - |   146M |   0 |  15k| 281 | 402 | 121 |  3 |   0 |   0 | 3.015363e+04 | 3.340140e+04 |  10.77%| unknown
r 2.2s|     1 |     0 |   956 |     - |shifting|   0 |  15k| 281 | 402 | 121 |  3 |   0 |   0 | 3.015363e+04 | 3.321269e+04 |  10.14%| unknown
  2.5s|     1 |     0 |  1070 |     - |   146M |   0 |  15k| 281 | 434 | 153 |  4 |   0 |   0 | 3.028740e+04 | 3.321269e+04 |   9.66%| unknown
r 2.6s|     1 |     0 |  1070 |     - |shifting|   0 |  15k| 281 | 434 | 153 |  4 |   0 |   0 | 3.028740e+04 | 3.313976e+04 |   9.42%| unknown
  3.0s|     1 |     0 |  1328 |     - |   147M |   0 |  15k| 281 | 465 | 184 |  5 |   0 |   0 | 3.038995e+04 | 3.313976e+04 |   9.05%| unknown
r 3.0s|     1 |     0 |  1328 |     - |shifting|   0 |  15k| 281 | 465 | 184 |  5 |   0 |   0 | 3.038995e+04 | 3.298799e+04 |   8.55%| unknown
  3.5s|     1 |     0 |  1568 |     - |   148M |   0 |  15k| 281 | 492 | 211 |  6 |   0 |   0 | 3.049040e+04 | 3.298799e+04 |   8.19%| unknown
 time | node  | left  |LP iter|LP it/n|mem/heur|mdpt |vars |cons |rows |cuts |sepa|confs|strbr|  dualbound   | primalbound  |  gap   | compl. 
r 3.5s|     1 |     0 |  1568 |     - |simplero|   0 |  15k| 281 | 492 | 211 |  6 |   0 |   0 | 3.049040e+04 | 3.278644e+04 |   7.53%| unknown
r 3.6s|     1 |     0 |  1568 |     - |shifting|   0 |  15k| 281 | 492 | 211 |  6 |   0 |   0 | 3.049040e+04 | 3.260909e+04 |   6.95%| unknown
  4.0s|     1 |     0 |  1706 |     - |   150M |   0 |  15k| 281 | 512 | 231 |  7 |   0 |   0 | 3.053366e+04 | 3.260909e+04 |   6.80%| unknown
  4.5s|     1 |     0 |  1869 |     - |   150M |   0 |  15k| 281 | 526 | 245 |  8 |   0 |   0 | 3.056552e+04 | 3.260909e+04 |   6.69%| unknown
  5.0s|     1 |     0 |  1940 |     - |   151M |   0 |  15k| 281 | 538 | 257 |  9 |   0 |   0 | 3.059616e+04 | 3.260909e+04 |   6.58%| unknown
  5.5s|     1 |     0 |  2092 |     - |   152M |   0 |  15k| 281 | 561 | 280 | 10 |   0 |   0 | 3.064040e+04 | 3.260909e+04 |   6.43%| unknown
r 5.6s|     1 |     0 |  2092 |     - |shifting|   0 |  15k| 281 | 561 | 280 | 10 |   0 |   0 | 3.064040e+04 | 3.249997e+04 |   6.07%| unknown
  5.9s|     1 |     0 |  2214 |     - |   153M |   0 |  15k| 281 | 574 | 293 | 11 |   0 |   0 | 3.065888e+04 | 3.249997e+04 |   6.01%| unknown
  6.3s|     1 |     0 |  2268 |     - |   153M |   0 |  15k| 281 | 587 | 306 | 12 |   0 |   0 | 3.066643e+04 | 3.249997e+04 |   5.98%| unknown
  6.8s|     1 |     0 |  2326 |     - |   153M |   0 |  15k| 281 | 596 | 315 | 13 |   0 |   0 | 3.067446e+04 | 3.249997e+04 |   5.95%| unknown
  7.1s|     1 |     0 |  2384 |     - |   153M |   0 |  15k| 281 | 609 | 328 | 14 |   0 |   0 | 3.068289e+04 | 3.249997e+04 |   5.92%| unknown
  7.3s|     1 |     0 |  2482 |     - |   155M |   0 |  15k| 281 | 624 | 343 | 15 |   0 |   0 | 3.068951e+04 | 3.249997e+04 |   5.90%| unknown
  7.6s|     1 |     0 |  2541 |     - |   156M |   0 |  15k| 281 | 612 | 353 | 16 |   0 |   0 | 3.069348e+04 | 3.249997e+04 |   5.89%| unknown
  7.9s|     1 |     0 |  2709 |     - |   156M |   0 |  15k| 281 | 618 | 359 | 17 |   0 |   0 | 3.069850e+04 | 3.249997e+04 |   5.87%| unknown
  8.2s|     1 |     0 |  2735 |     - |   157M |   0 |  15k| 281 | 623 | 364 | 18 |   0 |   0 | 3.069941e+04 | 3.249997e+04 |   5.87%| unknown
 time | node  | left  |LP iter|LP it/n|mem/heur|mdpt |vars |cons |rows |cuts |sepa|confs|strbr|  dualbound   | primalbound  |  gap   | compl. 
  8.5s|     1 |     0 |  2773 |     - |   157M |   0 |  15k| 281 | 634 | 375 | 19 |   0 |   0 | 3.070074e+04 | 3.249997e+04 |   5.86%| unknown
  8.8s|     1 |     0 |  2823 |     - |   158M |   0 |  15k| 281 | 641 | 382 | 20 |   0 |   0 | 3.070316e+04 | 3.249997e+04 |   5.85%| unknown
  9.0s|     1 |     0 |  2854 |     - |   159M |   0 |  15k| 281 | 648 | 389 | 21 |   0 |   0 | 3.070515e+04 | 3.249997e+04 |   5.85%| unknown
r 9.0s|     1 |     0 |  2854 |     - |shifting|   0 |  15k| 281 | 648 | 389 | 21 |   0 |   0 | 3.070515e+04 | 3.249441e+04 |   5.83%| unknown
  9.3s|     1 |     0 |  2861 |     - |   159M |   0 |  15k| 281 | 619 | 392 | 22 |   0 |   0 | 3.070516e+04 | 3.249441e+04 |   5.83%| unknown
r 9.4s|     1 |     0 |  2861 |     - |shifting|   0 |  15k| 281 | 619 | 392 | 22 |   0 |   0 | 3.070516e+04 | 3.248416e+04 |   5.79%| unknown
  9.8s|     1 |     0 |  2878 |     - |   161M |   0 |  15k| 281 | 622 | 395 | 23 |   0 |   0 | 3.070566e+04 | 3.248416e+04 |   5.79%| unknown
 10.1s|     1 |     0 |  2904 |     - |   162M |   0 |  15k| 281 | 625 | 398 | 24 |   0 |   0 | 3.070656e+04 | 3.248416e+04 |   5.79%| unknown
 10.4s|     1 |     0 |  2954 |     - |   162M |   0 |  15k| 281 | 630 | 403 | 25 |   0 |   0 | 3.070829e+04 | 3.248416e+04 |   5.78%| unknown
 10.8s|     1 |     0 |  2987 |     - |   162M |   0 |  15k| 281 | 636 | 409 | 26 |   0 |   0 | 3.070939e+04 | 3.248416e+04 |   5.78%| unknown
 11.1s|     1 |     0 |  2998 |     - |   162M |   0 |  15k| 281 | 639 | 412 | 27 |   0 |   0 | 3.070945e+04 | 3.248416e+04 |   5.78%| unknown
r11.2s|     1 |     0 |  3314 |     - |intshift|   0 |  15k| 281 | 639 | 412 | 27 |   0 |   0 | 3.070945e+04 | 3.166400e+04 |   3.11%| unknown
d11.7s|     1 |     0 |  3869 |     - |farkasdi|   0 |  15k| 281 | 639 |   0 | 27 |   0 |   0 | 3.070945e+04 | 3.137276e+04 |   2.16%| unknown
d11.7s|     1 |     0 |  3879 |     - |farkasdi|   0 |  15k| 281 | 639 |   0 | 27 |   0 |   0 | 3.070945e+04 | 3.136410e+04 |   2.13%| unknown
d11.7s|     1 |     0 |  3888 |     - |farkasdi|   0 |  15k| 281 | 639 |   0 | 27 |   0 |   0 | 3.070945e+04 | 3.123977e+04 |   1.73%| unknown
 time | node  | left  |LP iter|LP it/n|mem/heur|mdpt |vars |cons |rows |cuts |sepa|confs|strbr|  dualbound   | primalbound  |  gap   | compl. 
d11.7s|     1 |     0 |  3894 |     - |farkasdi|   0 |  15k| 281 | 639 |   0 | 27 |   0 |   0 | 3.070945e+04 | 3.110552e+04 |   1.29%| unknown
d11.7s|     1 |     0 |  3896 |     - |farkasdi|   0 |  15k| 281 | 639 |   0 | 27 |   0 |   0 | 3.070945e+04 | 3.098656e+04 |   0.90%| unknown
d12.0s|     1 |     0 |  4073 |     - |farkasdi|   0 |  15k| 281 | 639 |   0 | 27 |   0 |   0 | 3.070945e+04 | 3.096500e+04 |   0.83%| unknown
 12.8s|     1 |     0 |  4073 |     - |   170M |   0 |  15k| 281 | 639 | 412 | 27 |   0 |   0 | 3.070945e+04 | 3.096500e+04 |   0.83%| unknown
 13.3s|     1 |     0 |  4082 |     - |   170M |   0 |  15k| 281 | 641 | 414 | 28 |   0 |   0 | 3.070964e+04 | 3.096500e+04 |   0.83%| unknown
 13.3s|     1 |     0 |  4093 |     - |   170M |   0 |  15k| 281 | 643 | 416 | 29 |   0 |   0 | 3.071004e+04 | 3.096500e+04 |   0.83%| unknown
 16.6s|     1 |     2 |  4093 |     - |   176M |   0 |  15k| 281 | 643 | 416 | 29 |   0 |  28 | 3.072275e+04 | 3.096500e+04 |   0.79%| unknown
*26.7s|    34 |    23 |  7046 | 128.4 |strongbr|  13 |  15k| 281 | 614 | 569 |  6 |   0 | 191 | 3.072573e+04 | 3.090874e+04 |   0.60%|   2.97%
*26.9s|    36 |    23 |  7105 | 122.8 |    LP  |  13 |  15k| 281 | 606 | 571 |  2 |   0 | 194 | 3.072573e+04 | 3.090800e+04 |   0.59%|   3.06%
*28.5s|    45 |    29 |  7746 | 112.2 |strongbr|  13 |  15k| 281 | 597 | 598 |  6 |   0 | 212 | 3.072573e+04 | 3.090341e+04 |   0.58%|   3.44%
*28.8s|    46 |    19 |  7792 | 110.8 |strongbr|  13 |  15k| 281 | 591 | 600 |  2 |   0 | 219 | 3.072573e+04 | 3.084600e+04 |   0.39%|   4.78%
*28.9s|    48 |    13 |  7821 | 106.7 |strongbr|  13 |  15k| 281 | 572 | 600 |  1 |   0 | 222 | 3.072573e+04 | 3.082329e+04 |   0.32%|  10.98%
*29.0s|    48 |     2 |  7821 | 106.7 |strongbr|  13 |  15k| 281 | 572 | 600 |  1 |   0 | 222 | 3.072573e+04 | 3.073841e+04 |   0.04%|  23.84%
*29.1s|    50 |     2 |  7839 | 102.7 |    LP  |  13 |  15k| 281 | 572 | 600 |  2 |   0 | 224 | 3.072573e+04 | 3.073600e+04 |   0.03%|  25.78%

SCIP Status        : problem is solved [optimal solution found]
Solving Time (sec) : 29.58
Solving Nodes      : 58
Primal Bound       : +3.07360000000000e+04 (306 solutions)
Dual Bound         : +3.07360000000000e+04
Gap                : 0.00 %
Solve Status: optimal
Solve Time: 29.59 seconds
